peakDumbCharging = 25900; 
Machine = anon_enum(16); 
machineSpeed = [3700,3700,3700,3700,3700,3700,3700,3700,3700,3700,3700,3700,3700,3700,3700,3700]; 
machineLoad = [3700,3700,3700,3700,3700,3700,3700,3700,3700,3700,3700,3700,3700,3700,3700,3700]; 
Car = anon_enum(32); 
demandCar = [12160,3640,10840,10520,19880,18000,18160,11960,9360,4520,6760,5520,5240,3720,8160,9240,5560,4160,2240,25080,16720,11200,13240,5120,4920,7040,1600,20960,24360,30880,36640,18520]; 
arrivalCar = [77,72,71,68,67,64,63,62,62,61,60,60,60,60,57,56,54,53,53,52,49,47,45,45,44,42,40,40,39,37,29,29]; 
departureCar = [82,75,76,74,75,76,72,67,67,64,65,65,63,62,64,60,56,56,55,68,59,51,53,49,48,46,42,47,52,59,52,35]; 
